p cnf 360 2908
1 0
50 0
107 0
220 0
325 0
358 0
119 0
-1 -289 0
-2 -290 0
-3 -291 0
-4 -292 0
-5 -293 0
-6 -294 0
-7 -295 0
-8 -296 0
-1 -89 0
-2 -90 0
-3 -91 0
-4 -92 0
-5 -93 0
-6 -94 0
-7 -95 0
-8 -96 0
-1 -145 0
-2 -146 0
-3 -147 0
-4 -148 0
-5 -149 0
-6 -150 0
-7 -151 0
-8 -152 0
-1 -185 0
-2 -186 0
-3 -187 0
-4 -188 0
-5 -189 0
-6 -190 0
-7 -191 0
-8 -192 0
-1 -113 0
-2 -114 0
-3 -115 0
-4 -116 0
-5 -117 0
-6 -118 0
-7 -119 0
-8 -120 0
-1 -9 0
-2 -10 0
-3 -11 0
-4 -12 0
-5 -13 0
-6 -14 0
-7 -15 0
-8 -16 0
-1 -105 0
-2 -106 0
-3 -107 0
-4 -108 0
-5 -109 0
-6 -110 0
-7 -111 0
-8 -112 0
-1 -57 0
-2 -58 0
-3 -59 0
-4 -60 0
-5 -61 0
-6 -62 0
-7 -63 0
-8 -64 0
-1 -121 0
-2 -122 0
-3 -123 0
-4 -124 0
-5 -125 0
-6 -126 0
-7 -127 0
-8 -128 0
-1 -217 0
-2 -218 0
-3 -219 0
-4 -220 0
-5 -221 0
-6 -222 0
-7 -223 0
-8 -224 0
-1 -321 0
-2 -322 0
-3 -323 0
-4 -324 0
-5 -325 0
-6 -326 0
-7 -327 0
-8 -328 0
-1 -169 0
-2 -170 0
-3 -171 0
-4 -172 0
-5 -173 0
-6 -174 0
-7 -175 0
-8 -176 0
-1 -129 0
-2 -130 0
-3 -131 0
-4 -132 0
-5 -133 0
-6 -134 0
-7 -135 0
-8 -136 0
-1 -249 0
-2 -250 0
-3 -251 0
-4 -252 0
-5 -253 0
-6 -254 0
-7 -255 0
-8 -256 0
-1 -241 0
-2 -242 0
-3 -243 0
-4 -244 0
-5 -245 0
-6 -246 0
-7 -247 0
-8 -248 0
-1 -49 0
-2 -50 0
-3 -51 0
-4 -52 0
-5 -53 0
-6 -54 0
-7 -55 0
-8 -56 0
-1 -353 0
-2 -354 0
-3 -355 0
-4 -356 0
-5 -357 0
-6 -358 0
-7 -359 0
-8 -360 0
-9 -161 0
-10 -162 0
-11 -163 0
-12 -164 0
-13 -165 0
-14 -166 0
-15 -167 0
-16 -168 0
-9 -145 0
-10 -146 0
-11 -147 0
-12 -148 0
-13 -149 0
-14 -150 0
-15 -151 0
-16 -152 0
-9 -185 0
-10 -186 0
-11 -187 0
-12 -188 0
-13 -189 0
-14 -190 0
-15 -191 0
-16 -192 0
-9 -113 0
-10 -114 0
-11 -115 0
-12 -116 0
-13 -117 0
-14 -118 0
-15 -119 0
-16 -120 0
-9 -57 0
-10 -58 0
-11 -59 0
-12 -60 0
-13 -61 0
-14 -62 0
-15 -63 0
-16 -64 0
-9 -241 0
-10 -242 0
-11 -243 0
-12 -244 0
-13 -245 0
-14 -246 0
-15 -247 0
-16 -248 0
-9 -105 0
-10 -106 0
-11 -107 0
-12 -108 0
-13 -109 0
-14 -110 0
-15 -111 0
-16 -112 0
-9 -321 0
-10 -322 0
-11 -323 0
-12 -324 0
-13 -325 0
-14 -326 0
-15 -327 0
-16 -328 0
-9 -169 0
-10 -170 0
-11 -171 0
-12 -172 0
-13 -173 0
-14 -174 0
-15 -175 0
-16 -176 0
-9 -129 0
-10 -130 0
-11 -131 0
-12 -132 0
-13 -133 0
-14 -134 0
-15 -135 0
-16 -136 0
-9 -121 0
-10 -122 0
-11 -123 0
-12 -124 0
-13 -125 0
-14 -126 0
-15 -127 0
-16 -128 0
-9 -137 0
-10 -138 0
-11 -139 0
-12 -140 0
-13 -141 0
-14 -142 0
-15 -143 0
-16 -144 0
-9 -209 0
-10 -210 0
-11 -211 0
-12 -212 0
-13 -213 0
-14 -214 0
-15 -215 0
-16 -216 0
-9 -41 0
-10 -42 0
-11 -43 0
-12 -44 0
-13 -45 0
-14 -46 0
-15 -47 0
-16 -48 0
-9 -217 0
-10 -218 0
-11 -219 0
-12 -220 0
-13 -221 0
-14 -222 0
-15 -223 0
-16 -224 0
-17 -161 0
-18 -162 0
-19 -163 0
-20 -164 0
-21 -165 0
-22 -166 0
-23 -167 0
-24 -168 0
-17 -297 0
-18 -298 0
-19 -299 0
-20 -300 0
-21 -301 0
-22 -302 0
-23 -303 0
-24 -304 0
-17 -329 0
-18 -330 0
-19 -331 0
-20 -332 0
-21 -333 0
-22 -334 0
-23 -335 0
-24 -336 0
-17 -305 0
-18 -306 0
-19 -307 0
-20 -308 0
-21 -309 0
-22 -310 0
-23 -311 0
-24 -312 0
-17 -25 0
-18 -26 0
-19 -27 0
-20 -28 0
-21 -29 0
-22 -30 0
-23 -31 0
-24 -32 0
-17 -257 0
-18 -258 0
-19 -259 0
-20 -260 0
-21 -261 0
-22 -262 0
-23 -263 0
-24 -264 0
-17 -73 0
-18 -74 0
-19 -75 0
-20 -76 0
-21 -77 0
-22 -78 0
-23 -79 0
-24 -80 0
-17 -129 0
-18 -130 0
-19 -131 0
-20 -132 0
-21 -133 0
-22 -134 0
-23 -135 0
-24 -136 0
-17 -177 0
-18 -178 0
-19 -179 0
-20 -180 0
-21 -181 0
-22 -182 0
-23 -183 0
-24 -184 0
-17 -273 0
-18 -274 0
-19 -275 0
-20 -276 0
-21 -277 0
-22 -278 0
-23 -279 0
-24 -280 0
-17 -209 0
-18 -210 0
-19 -211 0
-20 -212 0
-21 -213 0
-22 -214 0
-23 -215 0
-24 -216 0
-17 -33 0
-18 -34 0
-19 -35 0
-20 -36 0
-21 -37 0
-22 -38 0
-23 -39 0
-24 -40 0
-17 -345 0
-18 -346 0
-19 -347 0
-20 -348 0
-21 -349 0
-22 -350 0
-23 -351 0
-24 -352 0
-17 -81 0
-18 -82 0
-19 -83 0
-20 -84 0
-21 -85 0
-22 -86 0
-23 -87 0
-24 -88 0
-17 -313 0
-18 -314 0
-19 -315 0
-20 -316 0
-21 -317 0
-22 -318 0
-23 -319 0
-24 -320 0
-17 -97 0
-18 -98 0
-19 -99 0
-20 -100 0
-21 -101 0
-22 -102 0
-23 -103 0
-24 -104 0
-25 -65 0
-26 -66 0
-27 -67 0
-28 -68 0
-29 -69 0
-30 -70 0
-31 -71 0
-32 -72 0
-25 -201 0
-26 -202 0
-27 -203 0
-28 -204 0
-29 -205 0
-30 -206 0
-31 -207 0
-32 -208 0
-25 -265 0
-26 -266 0
-27 -267 0
-28 -268 0
-29 -269 0
-30 -270 0
-31 -271 0
-32 -272 0
-25 -297 0
-26 -298 0
-27 -299 0
-28 -300 0
-29 -301 0
-30 -302 0
-31 -303 0
-32 -304 0
-25 -329 0
-26 -330 0
-27 -331 0
-28 -332 0
-29 -333 0
-30 -334 0
-31 -335 0
-32 -336 0
-25 -305 0
-26 -306 0
-27 -307 0
-28 -308 0
-29 -309 0
-30 -310 0
-31 -311 0
-32 -312 0
-25 -193 0
-26 -194 0
-27 -195 0
-28 -196 0
-29 -197 0
-30 -198 0
-31 -199 0
-32 -200 0
-25 -257 0
-26 -258 0
-27 -259 0
-28 -260 0
-29 -261 0
-30 -262 0
-31 -263 0
-32 -264 0
-25 -273 0
-26 -274 0
-27 -275 0
-28 -276 0
-29 -277 0
-30 -278 0
-31 -279 0
-32 -280 0
-25 -281 0
-26 -282 0
-27 -283 0
-28 -284 0
-29 -285 0
-30 -286 0
-31 -287 0
-32 -288 0
-25 -73 0
-26 -74 0
-27 -75 0
-28 -76 0
-29 -77 0
-30 -78 0
-31 -79 0
-32 -80 0
-25 -233 0
-26 -234 0
-27 -235 0
-28 -236 0
-29 -237 0
-30 -238 0
-31 -239 0
-32 -240 0
-25 -313 0
-26 -314 0
-27 -315 0
-28 -316 0
-29 -317 0
-30 -318 0
-31 -319 0
-32 -320 0
-25 -97 0
-26 -98 0
-27 -99 0
-28 -100 0
-29 -101 0
-30 -102 0
-31 -103 0
-32 -104 0
-33 -161 0
-34 -162 0
-35 -163 0
-36 -164 0
-37 -165 0
-38 -166 0
-39 -167 0
-40 -168 0
-33 -145 0
-34 -146 0
-35 -147 0
-36 -148 0
-37 -149 0
-38 -150 0
-39 -151 0
-40 -152 0
-33 -185 0
-34 -186 0
-35 -187 0
-36 -188 0
-37 -189 0
-38 -190 0
-39 -191 0
-40 -192 0
-33 -329 0
-34 -330 0
-35 -331 0
-36 -332 0
-37 -333 0
-38 -334 0
-39 -335 0
-40 -336 0
-33 -305 0
-34 -306 0
-35 -307 0
-36 -308 0
-37 -309 0
-38 -310 0
-39 -311 0
-40 -312 0
-33 -73 0
-34 -74 0
-35 -75 0
-36 -76 0
-37 -77 0
-38 -78 0
-39 -79 0
-40 -80 0
-33 -129 0
-34 -130 0
-35 -131 0
-36 -132 0
-37 -133 0
-38 -134 0
-39 -135 0
-40 -136 0
-33 -177 0
-34 -178 0
-35 -179 0
-36 -180 0
-37 -181 0
-38 -182 0
-39 -183 0
-40 -184 0
-33 -273 0
-34 -274 0
-35 -275 0
-36 -276 0
-37 -277 0
-38 -278 0
-39 -279 0
-40 -280 0
-33 -137 0
-34 -138 0
-35 -139 0
-36 -140 0
-37 -141 0
-38 -142 0
-39 -143 0
-40 -144 0
-33 -209 0
-34 -210 0
-35 -211 0
-36 -212 0
-37 -213 0
-38 -214 0
-39 -215 0
-40 -216 0
-33 -81 0
-34 -82 0
-35 -83 0
-36 -84 0
-37 -85 0
-38 -86 0
-39 -87 0
-40 -88 0
-33 -345 0
-34 -346 0
-35 -347 0
-36 -348 0
-37 -349 0
-38 -350 0
-39 -351 0
-40 -352 0
-33 -97 0
-34 -98 0
-35 -99 0
-36 -100 0
-37 -101 0
-38 -102 0
-39 -103 0
-40 -104 0
-41 -153 0
-42 -154 0
-43 -155 0
-44 -156 0
-45 -157 0
-46 -158 0
-47 -159 0
-48 -160 0
-41 -185 0
-42 -186 0
-43 -187 0
-44 -188 0
-45 -189 0
-46 -190 0
-47 -191 0
-48 -192 0
-41 -305 0
-42 -306 0
-43 -307 0
-44 -308 0
-45 -309 0
-46 -310 0
-47 -311 0
-48 -312 0
-41 -113 0
-42 -114 0
-43 -115 0
-44 -116 0
-45 -117 0
-46 -118 0
-47 -119 0
-48 -120 0
-41 -105 0
-42 -106 0
-43 -107 0
-44 -108 0
-45 -109 0
-46 -110 0
-47 -111 0
-48 -112 0
-41 -321 0
-42 -322 0
-43 -323 0
-44 -324 0
-45 -325 0
-46 -326 0
-47 -327 0
-48 -328 0
-41 -73 0
-42 -74 0
-43 -75 0
-44 -76 0
-45 -77 0
-46 -78 0
-47 -79 0
-48 -80 0
-41 -241 0
-42 -242 0
-43 -243 0
-44 -244 0
-45 -245 0
-46 -246 0
-47 -247 0
-48 -248 0
-41 -137 0
-42 -138 0
-43 -139 0
-44 -140 0
-45 -141 0
-46 -142 0
-47 -143 0
-48 -144 0
-41 -209 0
-42 -210 0
-43 -211 0
-44 -212 0
-45 -213 0
-46 -214 0
-47 -215 0
-48 -216 0
-41 -345 0
-42 -346 0
-43 -347 0
-44 -348 0
-45 -349 0
-46 -350 0
-47 -351 0
-48 -352 0
-41 -337 0
-42 -338 0
-43 -339 0
-44 -340 0
-45 -341 0
-46 -342 0
-47 -343 0
-48 -344 0
-41 -225 0
-42 -226 0
-43 -227 0
-44 -228 0
-45 -229 0
-46 -230 0
-47 -231 0
-48 -232 0
-41 -233 0
-42 -234 0
-43 -235 0
-44 -236 0
-45 -237 0
-46 -238 0
-47 -239 0
-48 -240 0
-41 -353 0
-42 -354 0
-43 -355 0
-44 -356 0
-45 -357 0
-46 -358 0
-47 -359 0
-48 -360 0
-49 -289 0
-50 -290 0
-51 -291 0
-52 -292 0
-53 -293 0
-54 -294 0
-55 -295 0
-56 -296 0
-49 -65 0
-50 -66 0
-51 -67 0
-52 -68 0
-53 -69 0
-54 -70 0
-55 -71 0
-56 -72 0
-49 -89 0
-50 -90 0
-51 -91 0
-52 -92 0
-53 -93 0
-54 -94 0
-55 -95 0
-56 -96 0
-49 -201 0
-50 -202 0
-51 -203 0
-52 -204 0
-53 -205 0
-54 -206 0
-55 -207 0
-56 -208 0
-49 -265 0
-50 -266 0
-51 -267 0
-52 -268 0
-53 -269 0
-54 -270 0
-55 -271 0
-56 -272 0
-49 -153 0
-50 -154 0
-51 -155 0
-52 -156 0
-53 -157 0
-54 -158 0
-55 -159 0
-56 -160 0
-49 -113 0
-50 -114 0
-51 -115 0
-52 -116 0
-53 -117 0
-54 -118 0
-55 -119 0
-56 -120 0
-49 -105 0
-50 -106 0
-51 -107 0
-52 -108 0
-53 -109 0
-54 -110 0
-55 -111 0
-56 -112 0
-49 -321 0
-50 -322 0
-51 -323 0
-52 -324 0
-53 -325 0
-54 -326 0
-55 -327 0
-56 -328 0
-49 -193 0
-50 -194 0
-51 -195 0
-52 -196 0
-53 -197 0
-54 -198 0
-55 -199 0
-56 -200 0
-49 -121 0
-50 -122 0
-51 -123 0
-52 -124 0
-53 -125 0
-54 -126 0
-55 -127 0
-56 -128 0
-49 -217 0
-50 -218 0
-51 -219 0
-52 -220 0
-53 -221 0
-54 -222 0
-55 -223 0
-56 -224 0
-49 -353 0
-50 -354 0
-51 -355 0
-52 -356 0
-53 -357 0
-54 -358 0
-55 -359 0
-56 -360 0
-49 -225 0
-50 -226 0
-51 -227 0
-52 -228 0
-53 -229 0
-54 -230 0
-55 -231 0
-56 -232 0
-49 -233 0
-50 -234 0
-51 -235 0
-52 -236 0
-53 -237 0
-54 -238 0
-55 -239 0
-56 -240 0
-57 -289 0
-58 -290 0
-59 -291 0
-60 -292 0
-61 -293 0
-62 -294 0
-63 -295 0
-64 -296 0
-57 -161 0
-58 -162 0
-59 -163 0
-60 -164 0
-61 -165 0
-62 -166 0
-63 -167 0
-64 -168 0
-57 -145 0
-58 -146 0
-59 -147 0
-60 -148 0
-61 -149 0
-62 -150 0
-63 -151 0
-64 -152 0
-57 -185 0
-58 -186 0
-59 -187 0
-60 -188 0
-61 -189 0
-62 -190 0
-63 -191 0
-64 -192 0
-57 -113 0
-58 -114 0
-59 -115 0
-60 -116 0
-61 -117 0
-62 -118 0
-63 -119 0
-64 -120 0
-57 -105 0
-58 -106 0
-59 -107 0
-60 -108 0
-61 -109 0
-62 -110 0
-63 -111 0
-64 -112 0
-57 -129 0
-58 -130 0
-59 -131 0
-60 -132 0
-61 -133 0
-62 -134 0
-63 -135 0
-64 -136 0
-57 -169 0
-58 -170 0
-59 -171 0
-60 -172 0
-61 -173 0
-62 -174 0
-63 -175 0
-64 -176 0
-57 -121 0
-58 -122 0
-59 -123 0
-60 -124 0
-61 -125 0
-62 -126 0
-63 -127 0
-64 -128 0
-57 -177 0
-58 -178 0
-59 -179 0
-60 -180 0
-61 -181 0
-62 -182 0
-63 -183 0
-64 -184 0
-57 -249 0
-58 -250 0
-59 -251 0
-60 -252 0
-61 -253 0
-62 -254 0
-63 -255 0
-64 -256 0
-57 -241 0
-58 -242 0
-59 -243 0
-60 -244 0
-61 -245 0
-62 -246 0
-63 -247 0
-64 -248 0
-57 -81 0
-58 -82 0
-59 -83 0
-60 -84 0
-61 -85 0
-62 -86 0
-63 -87 0
-64 -88 0
-57 -217 0
-58 -218 0
-59 -219 0
-60 -220 0
-61 -221 0
-62 -222 0
-63 -223 0
-64 -224 0
-65 -289 0
-66 -290 0
-67 -291 0
-68 -292 0
-69 -293 0
-70 -294 0
-71 -295 0
-72 -296 0
-65 -89 0
-66 -90 0
-67 -91 0
-68 -92 0
-69 -93 0
-70 -94 0
-71 -95 0
-72 -96 0
-65 -201 0
-66 -202 0
-67 -203 0
-68 -204 0
-69 -205 0
-70 -206 0
-71 -207 0
-72 -208 0
-65 -281 0
-66 -282 0
-67 -283 0
-68 -284 0
-69 -285 0
-70 -286 0
-71 -287 0
-72 -288 0
-65 -257 0
-66 -258 0
-67 -259 0
-68 -260 0
-69 -261 0
-70 -262 0
-71 -263 0
-72 -264 0
-65 -193 0
-66 -194 0
-67 -195 0
-68 -196 0
-69 -197 0
-70 -198 0
-71 -199 0
-72 -200 0
-65 -265 0
-66 -266 0
-67 -267 0
-68 -268 0
-69 -269 0
-70 -270 0
-71 -271 0
-72 -272 0
-65 -153 0
-66 -154 0
-67 -155 0
-68 -156 0
-69 -157 0
-70 -158 0
-71 -159 0
-72 -160 0
-65 -297 0
-66 -298 0
-67 -299 0
-68 -300 0
-69 -301 0
-70 -302 0
-71 -303 0
-72 -304 0
-65 -121 0
-66 -122 0
-67 -123 0
-68 -124 0
-69 -125 0
-70 -126 0
-71 -127 0
-72 -128 0
-65 -273 0
-66 -274 0
-67 -275 0
-68 -276 0
-69 -277 0
-70 -278 0
-71 -279 0
-72 -280 0
-65 -249 0
-66 -250 0
-67 -251 0
-68 -252 0
-69 -253 0
-70 -254 0
-71 -255 0
-72 -256 0
-65 -217 0
-66 -218 0
-67 -219 0
-68 -220 0
-69 -221 0
-70 -222 0
-71 -223 0
-72 -224 0
-65 -313 0
-66 -314 0
-67 -315 0
-68 -316 0
-69 -317 0
-70 -318 0
-71 -319 0
-72 -320 0
-73 -161 0
-74 -162 0
-75 -163 0
-76 -164 0
-77 -165 0
-78 -166 0
-79 -167 0
-80 -168 0
-73 -185 0
-74 -186 0
-75 -187 0
-76 -188 0
-77 -189 0
-78 -190 0
-79 -191 0
-80 -192 0
-73 -297 0
-74 -298 0
-75 -299 0
-76 -300 0
-77 -301 0
-78 -302 0
-79 -303 0
-80 -304 0
-73 -329 0
-74 -330 0
-75 -331 0
-76 -332 0
-77 -333 0
-78 -334 0
-79 -335 0
-80 -336 0
-73 -305 0
-74 -306 0
-75 -307 0
-76 -308 0
-77 -309 0
-78 -310 0
-79 -311 0
-80 -312 0
-73 -209 0
-74 -210 0
-75 -211 0
-76 -212 0
-77 -213 0
-78 -214 0
-79 -215 0
-80 -216 0
-73 -345 0
-74 -346 0
-75 -347 0
-76 -348 0
-77 -349 0
-78 -350 0
-79 -351 0
-80 -352 0
-73 -273 0
-74 -274 0
-75 -275 0
-76 -276 0
-77 -277 0
-78 -278 0
-79 -279 0
-80 -280 0
-73 -137 0
-74 -138 0
-75 -139 0
-76 -140 0
-77 -141 0
-78 -142 0
-79 -143 0
-80 -144 0
-73 -337 0
-74 -338 0
-75 -339 0
-76 -340 0
-77 -341 0
-78 -342 0
-79 -343 0
-80 -344 0
-73 -233 0
-74 -234 0
-75 -235 0
-76 -236 0
-77 -237 0
-78 -238 0
-79 -239 0
-80 -240 0
-73 -81 0
-74 -82 0
-75 -83 0
-76 -84 0
-77 -85 0
-78 -86 0
-79 -87 0
-80 -88 0
-73 -97 0
-74 -98 0
-75 -99 0
-76 -100 0
-77 -101 0
-78 -102 0
-79 -103 0
-80 -104 0
-81 -161 0
-82 -162 0
-83 -163 0
-84 -164 0
-85 -165 0
-86 -166 0
-87 -167 0
-88 -168 0
-81 -145 0
-82 -146 0
-83 -147 0
-84 -148 0
-85 -149 0
-86 -150 0
-87 -151 0
-88 -152 0
-81 -185 0
-82 -186 0
-83 -187 0
-84 -188 0
-85 -189 0
-86 -190 0
-87 -191 0
-88 -192 0
-81 -329 0
-82 -330 0
-83 -331 0
-84 -332 0
-85 -333 0
-86 -334 0
-87 -335 0
-88 -336 0
-81 -169 0
-82 -170 0
-83 -171 0
-84 -172 0
-85 -173 0
-86 -174 0
-87 -175 0
-88 -176 0
-81 -129 0
-82 -130 0
-83 -131 0
-84 -132 0
-85 -133 0
-86 -134 0
-87 -135 0
-88 -136 0
-81 -177 0
-82 -178 0
-83 -179 0
-84 -180 0
-85 -181 0
-86 -182 0
-87 -183 0
-88 -184 0
-81 -273 0
-82 -274 0
-83 -275 0
-84 -276 0
-85 -277 0
-86 -278 0
-87 -279 0
-88 -280 0
-81 -249 0
-82 -250 0
-83 -251 0
-84 -252 0
-85 -253 0
-86 -254 0
-87 -255 0
-88 -256 0
-81 -209 0
-82 -210 0
-83 -211 0
-84 -212 0
-85 -213 0
-86 -214 0
-87 -215 0
-88 -216 0
-81 -97 0
-82 -98 0
-83 -99 0
-84 -100 0
-85 -101 0
-86 -102 0
-87 -103 0
-88 -104 0
-81 -313 0
-82 -314 0
-83 -315 0
-84 -316 0
-85 -317 0
-86 -318 0
-87 -319 0
-88 -320 0
-89 -289 0
-90 -290 0
-91 -291 0
-92 -292 0
-93 -293 0
-94 -294 0
-95 -295 0
-96 -296 0
-89 -201 0
-90 -202 0
-91 -203 0
-92 -204 0
-93 -205 0
-94 -206 0
-95 -207 0
-96 -208 0
-89 -217 0
-90 -218 0
-91 -219 0
-92 -220 0
-93 -221 0
-94 -222 0
-95 -223 0
-96 -224 0
-89 -265 0
-90 -266 0
-91 -267 0
-92 -268 0
-93 -269 0
-94 -270 0
-95 -271 0
-96 -272 0
-89 -153 0
-90 -154 0
-91 -155 0
-92 -156 0
-93 -157 0
-94 -158 0
-95 -159 0
-96 -160 0
-89 -281 0
-90 -282 0
-91 -283 0
-92 -284 0
-93 -285 0
-94 -286 0
-95 -287 0
-96 -288 0
-89 -257 0
-90 -258 0
-91 -259 0
-92 -260 0
-93 -261 0
-94 -262 0
-95 -263 0
-96 -264 0
-89 -105 0
-90 -106 0
-91 -107 0
-92 -108 0
-93 -109 0
-94 -110 0
-95 -111 0
-96 -112 0
-89 -193 0
-90 -194 0
-91 -195 0
-92 -196 0
-93 -197 0
-94 -198 0
-95 -199 0
-96 -200 0
-89 -121 0
-90 -122 0
-91 -123 0
-92 -124 0
-93 -125 0
-94 -126 0
-95 -127 0
-96 -128 0
-89 -249 0
-90 -250 0
-91 -251 0
-92 -252 0
-93 -253 0
-94 -254 0
-95 -255 0
-96 -256 0
-89 -353 0
-90 -354 0
-91 -355 0
-92 -356 0
-93 -357 0
-94 -358 0
-95 -359 0
-96 -360 0
-97 -161 0
-98 -162 0
-99 -163 0
-100 -164 0
-101 -165 0
-102 -166 0
-103 -167 0
-104 -168 0
-97 -329 0
-98 -330 0
-99 -331 0
-100 -332 0
-101 -333 0
-102 -334 0
-103 -335 0
-104 -336 0
-97 -281 0
-98 -282 0
-99 -283 0
-100 -284 0
-101 -285 0
-102 -286 0
-103 -287 0
-104 -288 0
-97 -257 0
-98 -258 0
-99 -259 0
-100 -260 0
-101 -261 0
-102 -262 0
-103 -263 0
-104 -264 0
-97 -169 0
-98 -170 0
-99 -171 0
-100 -172 0
-101 -173 0
-102 -174 0
-103 -175 0
-104 -176 0
-97 -129 0
-98 -130 0
-99 -131 0
-100 -132 0
-101 -133 0
-102 -134 0
-103 -135 0
-104 -136 0
-97 -177 0
-98 -178 0
-99 -179 0
-100 -180 0
-101 -181 0
-102 -182 0
-103 -183 0
-104 -184 0
-97 -273 0
-98 -274 0
-99 -275 0
-100 -276 0
-101 -277 0
-102 -278 0
-103 -279 0
-104 -280 0
-97 -249 0
-98 -250 0
-99 -251 0
-100 -252 0
-101 -253 0
-102 -254 0
-103 -255 0
-104 -256 0
-97 -313 0
-98 -314 0
-99 -315 0
-100 -316 0
-101 -317 0
-102 -318 0
-103 -319 0
-104 -320 0
-105 -289 0
-106 -290 0
-107 -291 0
-108 -292 0
-109 -293 0
-110 -294 0
-111 -295 0
-112 -296 0
-105 -201 0
-106 -202 0
-107 -203 0
-108 -204 0
-109 -205 0
-110 -206 0
-111 -207 0
-112 -208 0
-105 -153 0
-106 -154 0
-107 -155 0
-108 -156 0
-109 -157 0
-110 -158 0
-111 -159 0
-112 -160 0
-105 -113 0
-106 -114 0
-107 -115 0
-108 -116 0
-109 -117 0
-110 -118 0
-111 -119 0
-112 -120 0
-105 -321 0
-106 -322 0
-107 -323 0
-108 -324 0
-109 -325 0
-110 -326 0
-111 -327 0
-112 -328 0
-105 -217 0
-106 -218 0
-107 -219 0
-108 -220 0
-109 -221 0
-110 -222 0
-111 -223 0
-112 -224 0
-105 -353 0
-106 -354 0
-107 -355 0
-108 -356 0
-109 -357 0
-110 -358 0
-111 -359 0
-112 -360 0
-105 -121 0
-106 -122 0
-107 -123 0
-108 -124 0
-109 -125 0
-110 -126 0
-111 -127 0
-112 -128 0
-105 -241 0
-106 -242 0
-107 -243 0
-108 -244 0
-109 -245 0
-110 -246 0
-111 -247 0
-112 -248 0
-105 -225 0
-106 -226 0
-107 -227 0
-108 -228 0
-109 -229 0
-110 -230 0
-111 -231 0
-112 -232 0
-113 -145 0
-114 -146 0
-115 -147 0
-116 -148 0
-117 -149 0
-118 -150 0
-119 -151 0
-120 -152 0
-113 -185 0
-114 -186 0
-115 -187 0
-116 -188 0
-117 -189 0
-118 -190 0
-119 -191 0
-120 -192 0
-113 -321 0
-114 -322 0
-115 -323 0
-116 -324 0
-117 -325 0
-118 -326 0
-119 -327 0
-120 -328 0
-113 -241 0
-114 -242 0
-115 -243 0
-116 -244 0
-117 -245 0
-118 -246 0
-119 -247 0
-120 -248 0
-113 -121 0
-114 -122 0
-115 -123 0
-116 -124 0
-117 -125 0
-118 -126 0
-119 -127 0
-120 -128 0
-113 -137 0
-114 -138 0
-115 -139 0
-116 -140 0
-117 -141 0
-118 -142 0
-119 -143 0
-120 -144 0
-113 -225 0
-114 -226 0
-115 -227 0
-116 -228 0
-117 -229 0
-118 -230 0
-119 -231 0
-120 -232 0
-113 -217 0
-114 -218 0
-115 -219 0
-116 -220 0
-117 -221 0
-118 -222 0
-119 -223 0
-120 -224 0
-113 -353 0
-114 -354 0
-115 -355 0
-116 -356 0
-117 -357 0
-118 -358 0
-119 -359 0
-120 -360 0
-121 -289 0
-122 -290 0
-123 -291 0
-124 -292 0
-125 -293 0
-126 -294 0
-127 -295 0
-128 -296 0
-121 -145 0
-122 -146 0
-123 -147 0
-124 -148 0
-125 -149 0
-126 -150 0
-127 -151 0
-128 -152 0
-121 -281 0
-122 -282 0
-123 -283 0
-124 -284 0
-125 -285 0
-126 -286 0
-127 -287 0
-128 -288 0
-121 -169 0
-122 -170 0
-123 -171 0
-124 -172 0
-125 -173 0
-126 -174 0
-127 -175 0
-128 -176 0
-121 -129 0
-122 -130 0
-123 -131 0
-124 -132 0
-125 -133 0
-126 -134 0
-127 -135 0
-128 -136 0
-121 -177 0
-122 -178 0
-123 -179 0
-124 -180 0
-125 -181 0
-126 -182 0
-127 -183 0
-128 -184 0
-121 -249 0
-122 -250 0
-123 -251 0
-124 -252 0
-125 -253 0
-126 -254 0
-127 -255 0
-128 -256 0
-121 -217 0
-122 -218 0
-123 -219 0
-124 -220 0
-125 -221 0
-126 -222 0
-127 -223 0
-128 -224 0
-121 -313 0
-122 -314 0
-123 -315 0
-124 -316 0
-125 -317 0
-126 -318 0
-127 -319 0
-128 -320 0
-129 -161 0
-130 -162 0
-131 -163 0
-132 -164 0
-133 -165 0
-134 -166 0
-135 -167 0
-136 -168 0
-129 -145 0
-130 -146 0
-131 -147 0
-132 -148 0
-133 -149 0
-134 -150 0
-135 -151 0
-136 -152 0
-129 -185 0
-130 -186 0
-131 -187 0
-132 -188 0
-133 -189 0
-134 -190 0
-135 -191 0
-136 -192 0
-129 -169 0
-130 -170 0
-131 -171 0
-132 -172 0
-133 -173 0
-134 -174 0
-135 -175 0
-136 -176 0
-129 -177 0
-130 -178 0
-131 -179 0
-132 -180 0
-133 -181 0
-134 -182 0
-135 -183 0
-136 -184 0
-129 -249 0
-130 -250 0
-131 -251 0
-132 -252 0
-133 -253 0
-134 -254 0
-135 -255 0
-136 -256 0
-129 -209 0
-130 -210 0
-131 -211 0
-132 -212 0
-133 -213 0
-134 -214 0
-135 -215 0
-136 -216 0
-129 -313 0
-130 -314 0
-131 -315 0
-132 -316 0
-133 -317 0
-134 -318 0
-135 -319 0
-136 -320 0
-137 -161 0
-138 -162 0
-139 -163 0
-140 -164 0
-141 -165 0
-142 -166 0
-143 -167 0
-144 -168 0
-137 -145 0
-138 -146 0
-139 -147 0
-140 -148 0
-141 -149 0
-142 -150 0
-143 -151 0
-144 -152 0
-137 -185 0
-138 -186 0
-139 -187 0
-140 -188 0
-141 -189 0
-142 -190 0
-143 -191 0
-144 -192 0
-137 -305 0
-138 -306 0
-139 -307 0
-140 -308 0
-141 -309 0
-142 -310 0
-143 -311 0
-144 -312 0
-137 -321 0
-138 -322 0
-139 -323 0
-140 -324 0
-141 -325 0
-142 -326 0
-143 -327 0
-144 -328 0
-137 -241 0
-138 -242 0
-139 -243 0
-140 -244 0
-141 -245 0
-142 -246 0
-143 -247 0
-144 -248 0
-137 -209 0
-138 -210 0
-139 -211 0
-140 -212 0
-141 -213 0
-142 -214 0
-143 -215 0
-144 -216 0
-137 -345 0
-138 -346 0
-139 -347 0
-140 -348 0
-141 -349 0
-142 -350 0
-143 -351 0
-144 -352 0
-137 -337 0
-138 -338 0
-139 -339 0
-140 -340 0
-141 -341 0
-142 -342 0
-143 -343 0
-144 -344 0
-137 -225 0
-138 -226 0
-139 -227 0
-140 -228 0
-141 -229 0
-142 -230 0
-143 -231 0
-144 -232 0
-145 -161 0
-146 -162 0
-147 -163 0
-148 -164 0
-149 -165 0
-150 -166 0
-151 -167 0
-152 -168 0
-145 -185 0
-146 -186 0
-147 -187 0
-148 -188 0
-149 -189 0
-150 -190 0
-151 -191 0
-152 -192 0
-145 -169 0
-146 -170 0
-147 -171 0
-148 -172 0
-149 -173 0
-150 -174 0
-151 -175 0
-152 -176 0
-145 -177 0
-146 -178 0
-147 -179 0
-148 -180 0
-149 -181 0
-150 -182 0
-151 -183 0
-152 -184 0
-145 -241 0
-146 -242 0
-147 -243 0
-148 -244 0
-149 -245 0
-150 -246 0
-151 -247 0
-152 -248 0
-145 -209 0
-146 -210 0
-147 -211 0
-148 -212 0
-149 -213 0
-150 -214 0
-151 -215 0
-152 -216 0
-153 -201 0
-154 -202 0
-155 -203 0
-156 -204 0
-157 -205 0
-158 -206 0
-159 -207 0
-160 -208 0
-153 -265 0
-154 -266 0
-155 -267 0
-156 -268 0
-157 -269 0
-158 -270 0
-159 -271 0
-160 -272 0
-153 -233 0
-154 -234 0
-155 -235 0
-156 -236 0
-157 -237 0
-158 -238 0
-159 -239 0
-160 -240 0
-153 -225 0
-154 -226 0
-155 -227 0
-156 -228 0
-157 -229 0
-158 -230 0
-159 -231 0
-160 -232 0
-153 -353 0
-154 -354 0
-155 -355 0
-156 -356 0
-157 -357 0
-158 -358 0
-159 -359 0
-160 -360 0
-153 -297 0
-154 -298 0
-155 -299 0
-156 -300 0
-157 -301 0
-158 -302 0
-159 -303 0
-160 -304 0
-153 -305 0
-154 -306 0
-155 -307 0
-156 -308 0
-157 -309 0
-158 -310 0
-159 -311 0
-160 -312 0
-153 -321 0
-154 -322 0
-155 -323 0
-156 -324 0
-157 -325 0
-158 -326 0
-159 -327 0
-160 -328 0
-153 -193 0
-154 -194 0
-155 -195 0
-156 -196 0
-157 -197 0
-158 -198 0
-159 -199 0
-160 -200 0
-153 -337 0
-154 -338 0
-155 -339 0
-156 -340 0
-157 -341 0
-158 -342 0
-159 -343 0
-160 -344 0
-153 -217 0
-154 -218 0
-155 -219 0
-156 -220 0
-157 -221 0
-158 -222 0
-159 -223 0
-160 -224 0
-161 -185 0
-162 -186 0
-163 -187 0
-164 -188 0
-165 -189 0
-166 -190 0
-167 -191 0
-168 -192 0
-161 -209 0
-162 -210 0
-163 -211 0
-164 -212 0
-165 -213 0
-166 -214 0
-167 -215 0
-168 -216 0
-161 -169 0
-162 -170 0
-163 -171 0
-164 -172 0
-165 -173 0
-166 -174 0
-167 -175 0
-168 -176 0
-161 -177 0
-162 -178 0
-163 -179 0
-164 -180 0
-165 -181 0
-166 -182 0
-167 -183 0
-168 -184 0
-161 -241 0
-162 -242 0
-163 -243 0
-164 -244 0
-165 -245 0
-166 -246 0
-167 -247 0
-168 -248 0
-161 -345 0
-162 -346 0
-163 -347 0
-164 -348 0
-165 -349 0
-166 -350 0
-167 -351 0
-168 -352 0
-169 -289 0
-170 -290 0
-171 -291 0
-172 -292 0
-173 -293 0
-174 -294 0
-175 -295 0
-176 -296 0
-169 -281 0
-170 -282 0
-171 -283 0
-172 -284 0
-173 -285 0
-174 -286 0
-175 -287 0
-176 -288 0
-169 -177 0
-170 -178 0
-171 -179 0
-172 -180 0
-173 -181 0
-174 -182 0
-175 -183 0
-176 -184 0
-169 -249 0
-170 -250 0
-171 -251 0
-172 -252 0
-173 -253 0
-174 -254 0
-175 -255 0
-176 -256 0
-169 -217 0
-170 -218 0
-171 -219 0
-172 -220 0
-173 -221 0
-174 -222 0
-175 -223 0
-176 -224 0
-169 -313 0
-170 -314 0
-171 -315 0
-172 -316 0
-173 -317 0
-174 -318 0
-175 -319 0
-176 -320 0
-177 -289 0
-178 -290 0
-179 -291 0
-180 -292 0
-181 -293 0
-182 -294 0
-183 -295 0
-184 -296 0
-177 -281 0
-178 -282 0
-179 -283 0
-180 -284 0
-181 -285 0
-182 -286 0
-183 -287 0
-184 -288 0
-177 -257 0
-178 -258 0
-179 -259 0
-180 -260 0
-181 -261 0
-182 -262 0
-183 -263 0
-184 -264 0
-177 -249 0
-178 -250 0
-179 -251 0
-180 -252 0
-181 -253 0
-182 -254 0
-183 -255 0
-184 -256 0
-177 -313 0
-178 -314 0
-179 -315 0
-180 -316 0
-181 -317 0
-182 -318 0
-183 -319 0
-184 -320 0
-177 -273 0
-178 -274 0
-179 -275 0
-180 -276 0
-181 -277 0
-182 -278 0
-183 -279 0
-184 -280 0
-185 -241 0
-186 -242 0
-187 -243 0
-188 -244 0
-189 -245 0
-190 -246 0
-191 -247 0
-192 -248 0
-185 -209 0
-186 -210 0
-187 -211 0
-188 -212 0
-189 -213 0
-190 -214 0
-191 -215 0
-192 -216 0
-185 -321 0
-186 -322 0
-187 -323 0
-188 -324 0
-189 -325 0
-190 -326 0
-191 -327 0
-192 -328 0
-185 -345 0
-186 -346 0
-187 -347 0
-188 -348 0
-189 -349 0
-190 -350 0
-191 -351 0
-192 -352 0
-193 -289 0
-194 -290 0
-195 -291 0
-196 -292 0
-197 -293 0
-198 -294 0
-199 -295 0
-200 -296 0
-193 -201 0
-194 -202 0
-195 -203 0
-196 -204 0
-197 -205 0
-198 -206 0
-199 -207 0
-200 -208 0
-193 -265 0
-194 -266 0
-195 -267 0
-196 -268 0
-197 -269 0
-198 -270 0
-199 -271 0
-200 -272 0
-193 -297 0
-194 -298 0
-195 -299 0
-196 -300 0
-197 -301 0
-198 -302 0
-199 -303 0
-200 -304 0
-193 -329 0
-194 -330 0
-195 -331 0
-196 -332 0
-197 -333 0
-198 -334 0
-199 -335 0
-200 -336 0
-193 -305 0
-194 -306 0
-195 -307 0
-196 -308 0
-197 -309 0
-198 -310 0
-199 -311 0
-200 -312 0
-193 -281 0
-194 -282 0
-195 -283 0
-196 -284 0
-197 -285 0
-198 -286 0
-199 -287 0
-200 -288 0
-193 -257 0
-194 -258 0
-195 -259 0
-196 -260 0
-197 -261 0
-198 -262 0
-199 -263 0
-200 -264 0
-193 -273 0
-194 -274 0
-195 -275 0
-196 -276 0
-197 -277 0
-198 -278 0
-199 -279 0
-200 -280 0
-193 -233 0
-194 -234 0
-195 -235 0
-196 -236 0
-197 -237 0
-198 -238 0
-199 -239 0
-200 -240 0
-193 -313 0
-194 -314 0
-195 -315 0
-196 -316 0
-197 -317 0
-198 -318 0
-199 -319 0
-200 -320 0
-201 -289 0
-202 -290 0
-203 -291 0
-204 -292 0
-205 -293 0
-206 -294 0
-207 -295 0
-208 -296 0
-201 -265 0
-202 -266 0
-203 -267 0
-204 -268 0
-205 -269 0
-206 -270 0
-207 -271 0
-208 -272 0
-201 -297 0
-202 -298 0
-203 -299 0
-204 -300 0
-205 -301 0
-206 -302 0
-207 -303 0
-208 -304 0
-201 -281 0
-202 -282 0
-203 -283 0
-204 -284 0
-205 -285 0
-206 -286 0
-207 -287 0
-208 -288 0
-201 -257 0
-202 -258 0
-203 -259 0
-204 -260 0
-205 -261 0
-206 -262 0
-207 -263 0
-208 -264 0
-201 -225 0
-202 -226 0
-203 -227 0
-204 -228 0
-205 -229 0
-206 -230 0
-207 -231 0
-208 -232 0
-201 -233 0
-202 -234 0
-203 -235 0
-204 -236 0
-205 -237 0
-206 -238 0
-207 -239 0
-208 -240 0
-201 -217 0
-202 -218 0
-203 -219 0
-204 -220 0
-205 -221 0
-206 -222 0
-207 -223 0
-208 -224 0
-201 -353 0
-202 -354 0
-203 -355 0
-204 -356 0
-205 -357 0
-206 -358 0
-207 -359 0
-208 -360 0
-209 -329 0
-210 -330 0
-211 -331 0
-212 -332 0
-213 -333 0
-214 -334 0
-215 -335 0
-216 -336 0
-209 -305 0
-210 -306 0
-211 -307 0
-212 -308 0
-213 -309 0
-214 -310 0
-215 -311 0
-216 -312 0
-209 -241 0
-210 -242 0
-211 -243 0
-212 -244 0
-213 -245 0
-214 -246 0
-215 -247 0
-216 -248 0
-209 -345 0
-210 -346 0
-211 -347 0
-212 -348 0
-213 -349 0
-214 -350 0
-215 -351 0
-216 -352 0
-209 -337 0
-210 -338 0
-211 -339 0
-212 -340 0
-213 -341 0
-214 -342 0
-215 -343 0
-216 -344 0
-217 -289 0
-218 -290 0
-219 -291 0
-220 -292 0
-221 -293 0
-222 -294 0
-223 -295 0
-224 -296 0
-217 -281 0
-218 -282 0
-219 -283 0
-220 -284 0
-221 -285 0
-222 -286 0
-223 -287 0
-224 -288 0
-217 -321 0
-218 -322 0
-219 -323 0
-220 -324 0
-221 -325 0
-222 -326 0
-223 -327 0
-224 -328 0
-217 -249 0
-218 -250 0
-219 -251 0
-220 -252 0
-221 -253 0
-222 -254 0
-223 -255 0
-224 -256 0
-217 -353 0
-218 -354 0
-219 -355 0
-220 -356 0
-221 -357 0
-222 -358 0
-223 -359 0
-224 -360 0
-225 -265 0
-226 -266 0
-227 -267 0
-228 -268 0
-229 -269 0
-230 -270 0
-231 -271 0
-232 -272 0
-225 -297 0
-226 -298 0
-227 -299 0
-228 -300 0
-229 -301 0
-230 -302 0
-231 -303 0
-232 -304 0
-225 -305 0
-226 -306 0
-227 -307 0
-228 -308 0
-229 -309 0
-230 -310 0
-231 -311 0
-232 -312 0
-225 -321 0
-226 -322 0
-227 -323 0
-228 -324 0
-229 -325 0
-230 -326 0
-231 -327 0
-232 -328 0
-225 -241 0
-226 -242 0
-227 -243 0
-228 -244 0
-229 -245 0
-230 -246 0
-231 -247 0
-232 -248 0
-225 -345 0
-226 -346 0
-227 -347 0
-228 -348 0
-229 -349 0
-230 -350 0
-231 -351 0
-232 -352 0
-225 -337 0
-226 -338 0
-227 -339 0
-228 -340 0
-229 -341 0
-230 -342 0
-231 -343 0
-232 -344 0
-225 -233 0
-226 -234 0
-227 -235 0
-228 -236 0
-229 -237 0
-230 -238 0
-231 -239 0
-232 -240 0
-225 -353 0
-226 -354 0
-227 -355 0
-228 -356 0
-229 -357 0
-230 -358 0
-231 -359 0
-232 -360 0
-233 -265 0
-234 -266 0
-235 -267 0
-236 -268 0
-237 -269 0
-238 -270 0
-239 -271 0
-240 -272 0
-233 -297 0
-234 -298 0
-235 -299 0
-236 -300 0
-237 -301 0
-238 -302 0
-239 -303 0
-240 -304 0
-233 -329 0
-234 -330 0
-235 -331 0
-236 -332 0
-237 -333 0
-238 -334 0
-239 -335 0
-240 -336 0
-233 -305 0
-234 -306 0
-235 -307 0
-236 -308 0
-237 -309 0
-238 -310 0
-239 -311 0
-240 -312 0
-233 -321 0
-234 -322 0
-235 -323 0
-236 -324 0
-237 -325 0
-238 -326 0
-239 -327 0
-240 -328 0
-233 -345 0
-234 -346 0
-235 -347 0
-236 -348 0
-237 -349 0
-238 -350 0
-239 -351 0
-240 -352 0
-233 -337 0
-234 -338 0
-235 -339 0
-236 -340 0
-237 -341 0
-238 -342 0
-239 -343 0
-240 -344 0
-233 -353 0
-234 -354 0
-235 -355 0
-236 -356 0
-237 -357 0
-238 -358 0
-239 -359 0
-240 -360 0
-241 -321 0
-242 -322 0
-243 -323 0
-244 -324 0
-245 -325 0
-246 -326 0
-247 -327 0
-248 -328 0
-241 -345 0
-242 -346 0
-243 -347 0
-244 -348 0
-245 -349 0
-246 -350 0
-247 -351 0
-248 -352 0
-241 -337 0
-242 -338 0
-243 -339 0
-244 -340 0
-245 -341 0
-246 -342 0
-247 -343 0
-248 -344 0
-241 -353 0
-242 -354 0
-243 -355 0
-244 -356 0
-245 -357 0
-246 -358 0
-247 -359 0
-248 -360 0
-249 -289 0
-250 -290 0
-251 -291 0
-252 -292 0
-253 -293 0
-254 -294 0
-255 -295 0
-256 -296 0
-249 -281 0
-250 -282 0
-251 -283 0
-252 -284 0
-253 -285 0
-254 -286 0
-255 -287 0
-256 -288 0
-249 -257 0
-250 -258 0
-251 -259 0
-252 -260 0
-253 -261 0
-254 -262 0
-255 -263 0
-256 -264 0
-249 -273 0
-250 -274 0
-251 -275 0
-252 -276 0
-253 -277 0
-254 -278 0
-255 -279 0
-256 -280 0
-249 -313 0
-250 -314 0
-251 -315 0
-252 -316 0
-253 -317 0
-254 -318 0
-255 -319 0
-256 -320 0
-257 -289 0
-258 -290 0
-259 -291 0
-260 -292 0
-261 -293 0
-262 -294 0
-263 -295 0
-264 -296 0
-257 -265 0
-258 -266 0
-259 -267 0
-260 -268 0
-261 -269 0
-262 -270 0
-263 -271 0
-264 -272 0
-257 -297 0
-258 -298 0
-259 -299 0
-260 -300 0
-261 -301 0
-262 -302 0
-263 -303 0
-264 -304 0
-257 -329 0
-258 -330 0
-259 -331 0
-260 -332 0
-261 -333 0
-262 -334 0
-263 -335 0
-264 -336 0
-257 -281 0
-258 -282 0
-259 -283 0
-260 -284 0
-261 -285 0
-262 -286 0
-263 -287 0
-264 -288 0
-257 -273 0
-258 -274 0
-259 -275 0
-260 -276 0
-261 -277 0
-262 -278 0
-263 -279 0
-264 -280 0
-257 -313 0
-258 -314 0
-259 -315 0
-260 -316 0
-261 -317 0
-262 -318 0
-263 -319 0
-264 -320 0
-265 -297 0
-266 -298 0
-267 -299 0
-268 -300 0
-269 -301 0
-270 -302 0
-271 -303 0
-272 -304 0
-265 -329 0
-266 -330 0
-267 -331 0
-268 -332 0
-269 -333 0
-270 -334 0
-271 -335 0
-272 -336 0
-265 -305 0
-266 -306 0
-267 -307 0
-268 -308 0
-269 -309 0
-270 -310 0
-271 -311 0
-272 -312 0
-265 -337 0
-266 -338 0
-267 -339 0
-268 -340 0
-269 -341 0
-270 -342 0
-271 -343 0
-272 -344 0
-265 -353 0
-266 -354 0
-267 -355 0
-268 -356 0
-269 -357 0
-270 -358 0
-271 -359 0
-272 -360 0
-273 -297 0
-274 -298 0
-275 -299 0
-276 -300 0
-277 -301 0
-278 -302 0
-279 -303 0
-280 -304 0
-273 -329 0
-274 -330 0
-275 -331 0
-276 -332 0
-277 -333 0
-278 -334 0
-279 -335 0
-280 -336 0
-273 -305 0
-274 -306 0
-275 -307 0
-276 -308 0
-277 -309 0
-278 -310 0
-279 -311 0
-280 -312 0
-273 -281 0
-274 -282 0
-275 -283 0
-276 -284 0
-277 -285 0
-278 -286 0
-279 -287 0
-280 -288 0
-273 -313 0
-274 -314 0
-275 -315 0
-276 -316 0
-277 -317 0
-278 -318 0
-279 -319 0
-280 -320 0
-281 -289 0
-282 -290 0
-283 -291 0
-284 -292 0
-285 -293 0
-286 -294 0
-287 -295 0
-288 -296 0
-281 -313 0
-282 -314 0
-283 -315 0
-284 -316 0
-285 -317 0
-286 -318 0
-287 -319 0
-288 -320 0
-289 -313 0
-290 -314 0
-291 -315 0
-292 -316 0
-293 -317 0
-294 -318 0
-295 -319 0
-296 -320 0
-297 -329 0
-298 -330 0
-299 -331 0
-300 -332 0
-301 -333 0
-302 -334 0
-303 -335 0
-304 -336 0
-297 -305 0
-298 -306 0
-299 -307 0
-300 -308 0
-301 -309 0
-302 -310 0
-303 -311 0
-304 -312 0
-297 -345 0
-298 -346 0
-299 -347 0
-300 -348 0
-301 -349 0
-302 -350 0
-303 -351 0
-304 -352 0
-297 -337 0
-298 -338 0
-299 -339 0
-300 -340 0
-301 -341 0
-302 -342 0
-303 -343 0
-304 -344 0
-305 -329 0
-306 -330 0
-307 -331 0
-308 -332 0
-309 -333 0
-310 -334 0
-311 -335 0
-312 -336 0
-305 -337 0
-306 -338 0
-307 -339 0
-308 -340 0
-309 -341 0
-310 -342 0
-311 -343 0
-312 -344 0
-305 -345 0
-306 -346 0
-307 -347 0
-308 -348 0
-309 -349 0
-310 -350 0
-311 -351 0
-312 -352 0
-313 -329 0
-314 -330 0
-315 -331 0
-316 -332 0
-317 -333 0
-318 -334 0
-319 -335 0
-320 -336 0
-321 -353 0
-322 -354 0
-323 -355 0
-324 -356 0
-325 -357 0
-326 -358 0
-327 -359 0
-328 -360 0
-321 -345 0
-322 -346 0
-323 -347 0
-324 -348 0
-325 -349 0
-326 -350 0
-327 -351 0
-328 -352 0
-321 -337 0
-322 -338 0
-323 -339 0
-324 -340 0
-325 -341 0
-326 -342 0
-327 -343 0
-328 -344 0
-329 -345 0
-330 -346 0
-331 -347 0
-332 -348 0
-333 -349 0
-334 -350 0
-335 -351 0
-336 -352 0
-329 -337 0
-330 -338 0
-331 -339 0
-332 -340 0
-333 -341 0
-334 -342 0
-335 -343 0
-336 -344 0
-337 -345 0
-338 -346 0
-339 -347 0
-340 -348 0
-341 -349 0
-342 -350 0
-343 -351 0
-344 -352 0
-337 -353 0
-338 -354 0
-339 -355 0
-340 -356 0
-341 -357 0
-342 -358 0
-343 -359 0
-344 -360 0
1 2 3 4 5 6 7 8 0
9 10 11 12 13 14 15 16 0
17 18 19 20 21 22 23 24 0
25 26 27 28 29 30 31 32 0
33 34 35 36 37 38 39 40 0
41 42 43 44 45 46 47 48 0
49 50 51 52 53 54 55 56 0
57 58 59 60 61 62 63 64 0
65 66 67 68 69 70 71 72 0
73 74 75 76 77 78 79 80 0
81 82 83 84 85 86 87 88 0
89 90 91 92 93 94 95 96 0
97 98 99 100 101 102 103 104 0
105 106 107 108 109 110 111 112 0
113 114 115 116 117 118 119 120 0
121 122 123 124 125 126 127 128 0
129 130 131 132 133 134 135 136 0
137 138 139 140 141 142 143 144 0
145 146 147 148 149 150 151 152 0
153 154 155 156 157 158 159 160 0
161 162 163 164 165 166 167 168 0
169 170 171 172 173 174 175 176 0
177 178 179 180 181 182 183 184 0
185 186 187 188 189 190 191 192 0
193 194 195 196 197 198 199 200 0
201 202 203 204 205 206 207 208 0
209 210 211 212 213 214 215 216 0
217 218 219 220 221 222 223 224 0
225 226 227 228 229 230 231 232 0
233 234 235 236 237 238 239 240 0
241 242 243 244 245 246 247 248 0
249 250 251 252 253 254 255 256 0
257 258 259 260 261 262 263 264 0
265 266 267 268 269 270 271 272 0
273 274 275 276 277 278 279 280 0
281 282 283 284 285 286 287 288 0
289 290 291 292 293 294 295 296 0
297 298 299 300 301 302 303 304 0
305 306 307 308 309 310 311 312 0
313 314 315 316 317 318 319 320 0
321 322 323 324 325 326 327 328 0
329 330 331 332 333 334 335 336 0
337 338 339 340 341 342 343 344 0
345 346 347 348 349 350 351 352 0
353 354 355 356 357 358 359 360 0
